Route #1: 33 65 8 40 58 32
Route #2: 27 14 39 29 3 15 60 4 21 36 24
Route #3: 49 12 9 5 42
Route #4: 63 46 26 10 2 6
Route #5: 47 37 48 25 62 16 28
Route #6: 50 61 59 44 64 30 7 1
Route #7: 53 23 57 38 35 19 11 55
Route #8: 45 31 13 56 22 43 34 51
Route #9: 41 20 17 18 54 52
Cost 1318
Time 0.105301
